BAYES
256
2 2 2 2 2 2 2 2 2 2 2 2 2 2 2 2 2 2 2 2 2 2 2 2 2 2 2 2 2 2 2 2 2 2 2 2 2 2 2 2 2 2 2 2 2 2 2 2 2 2 2 2 2 2 2 2 2 2 2 2 2 2 2 2 2 2 2 2 2 2 2 2 2 2 2 2 2 2 2 2 2 2 2 2 2 2 2 2 2 2 2 2 2 2 2 2 2 2 2 2 2 2 2 2 2 2 2 2 2 2 2 2 2 2 2 2 2 2 2 2 2 2 2 2 2 2 2 2 2 2 2 2 2 2 2 2 2 2 2 2 2 2 2 2 2 2 2 2 2 2 2 2 2 2 2 2 2 2 2 2 2 2 2 2 2 2 2 2 2 2 2 2 2 2 2 2 2 2 2 2 2 2 2 2 2 2 2 2 2 2 2 2 2 2 2 2 2 2 2 2 2 2 2 2 2 2 2 2 2 2 2 2 2 2 2 2 2 2 2 2 2 2 2 2 2 2 2 2 2 2 2 2 2 2 2 2 2 2 2 2 2 2 2 2 2 2 2 2 2 2 2 2 2 2 2 2 
256
3	1	53	0
3	5	113	1
3	3	80	2
3	4	79	3
2	78	4
3	6	76	5
3	7	75	6
3	8	74	7
3	2	73	8
3	10	217	9
3	14	112	10
3	9	120	11
3	13	246	12
3	18	245	13
3	15	180	14
3	62	244	15
3	17	110	16
3	21	195	17
3	19	193	18
3	16	192	19
2	190	20
3	22	248	21
3	20	179	22
3	24	43	23
3	25	42	24
3	26	242	25
3	27	240	26
3	28	237	27
3	29	236	28
3	30	92	29
3	31	77	30
2	46	31
3	35	84	32
3	32	83	33
3	205	82	34
3	34	81	35
3	39	88	36
3	139	69	37
3	33	86	38
3	38	85	39
3	41	72	40
3	106	71	41
3	242	41	42
3	42	40	43
2	219	44
3	109	121	45
2	130	46
3	50	119	47
2	44	48
3	52	117	49
3	49	116	50
3	53	115	51
3	51	114	52
3	113	12	53
3	55	247	54
3	56	250	55
3	57	249	56
3	58	252	57
3	59	251	58
3	60	254	59
3	148	253	60
3	130	64	61
3	63	241	62
3	40	238	63
3	66	3	64
3	64	2	65
2	4	66
3	70	6	67
3	67	5	68
3	65	8	69
3	69	7	70
3	68	1	71
3	71	0	72
3	80	17	73
3	73	16	74
3	74	19	75
3	75	18	76
3	46	61	77
2	20	78
3	78	22	79
3	79	21	80
3	82	198	81
3	137	197	82
3	84	200	83
3	81	199	84
3	86	202	85
3	83	201	86
3	196	10	87
3	85	203	88
3	23	152	89
3	91	215	90
3	96	214	91
3	77	139	92
3	90	216	93
3	95	219	94
3	107	218	95
3	97	48	96
3	94	44	97
3	239	189	98
3	100	166	99
3	104	165	100
3	102	164	101
3	99	163	102
2	162	103
3	105	161	104
3	103	160	105
3	111	68	106
3	108	168	107
3	101	167	108
3	47	118	109
3	195	175	110
3	147	67	111
3	180	128	112
3	76	13	113
3	115	185	114
3	12	184	115
3	117	187	116
3	114	186	117
3	119	182	118
3	116	181	119
3	217	126	120
3	118	183	121
3	123	50	122
3	124	49	123
3	125	52	124
3	0	51	125
3	127	45	126
3	128	109	127
3	122	47	128
2	228	129
2	66	130
3	132	227	131
3	129	226	132
3	134	225	133
3	131	224	134
3	136	223	135
3	133	222	136
3	138	221	137
3	135	220	138
3	61	65	139
3	141	156	140
3	142	155	141
3	143	154	142
3	144	153	143
3	145	159	144
3	146	158	145
2	157	146
3	37	70	147
3	149	151	148
3	140	150	149
3	156	108	150
3	150	107	151
3	43	63	152
3	159	100	153
3	153	99	154
3	154	102	155
3	155	101	156
2	103	157
3	157	105	158
3	158	104	159
2	162	160
2	160	161
1	162
2	166	163
2	163	164
2	161	165
2	165	166
2	164	167
2	167	168
3	170	209	169
3	171	208	170
2	207	171
3	89	206	172
3	174	213	173
3	175	212	174
3	176	211	175
3	169	210	176
3	178	205	177
3	173	204	178
3	190	170	179
3	244	122	180
3	187	235	181
3	181	234	182
3	182	233	183
3	246	232	184
3	184	231	185
3	185	230	186
3	186	229	187
3	172	194	188
3	243	11	189
2	171	190
3	188	196	191
3	110	174	192
3	192	173	193
3	206	15	194
3	248	176	195
3	194	14	196
3	221	60	197
3	197	59	198
3	198	58	199
3	199	57	200
3	200	56	201
3	201	55	202
3	202	54	203
3	213	138	204
3	204	137	205
3	152	62	206
2	129	207
3	207	132	208
3	208	131	209
3	209	134	210
3	210	133	211
3	211	136	212
3	212	135	213
2	48	214
2	214	215
2	215	216
3	112	127	217
2	168	218
2	218	219
3	223	149	220
3	220	148	221
3	225	141	222
3	222	140	223
3	227	143	224
3	224	142	225
3	228	145	226
3	226	144	227
2	146	228
3	230	33	229
3	231	32	230
3	232	35	231
3	177	34	232
3	234	36	233
3	235	39	234
3	229	38	235
3	92	37	236
3	236	147	237
3	72	125	238
3	255	243	239
3	237	111	240
3	238	124	241
3	240	106	242
3	87	9	243
3	241	123	244
3	193	178	245
3	245	177	246
3	250	93	247
3	179	169	248
3	252	91	249
3	249	90	250
3	254	97	251
3	251	96	252
3	151	95	253
3	253	94	254
3	191	87	255

8
 0.00000000 1.00000000
 0.00000000 1.00000000
 1.00000000 0.00000000
 0.00000000 1.00000000

8
 0.00000000 1.00000000
 0.00000000 1.00000000
 1.00000000 0.00000000
 0.00000000 1.00000000

8
 0.79702700 0.20297300
 0.24951400 0.75048600
 0.61005200 0.38994800
 0.14536200 0.85463800

8
 1.00000000 0.00000000
 1.00000000 0.00000000
 0.00000000 1.00000000
 0.00000000 1.00000000

4
 0.00000000 1.00000000
 1.00000000 0.00000000

8
 0.00000000 1.00000000
 1.00000000 0.00000000
 0.00000000 1.00000000
 1.00000000 0.00000000

8
 0.00000000 1.00000000
 0.00000000 1.00000000
 0.00000000 1.00000000
 1.00000000 0.00000000

8
 1.00000000 0.00000000
 1.00000000 0.00000000
 0.00000000 1.00000000
 1.00000000 0.00000000

8
 1.00000000 0.00000000
 1.00000000 0.00000000
 1.00000000 0.00000000
 0.00000000 1.00000000

8
 1.00000000 0.00000000
 1.00000000 0.00000000
 1.00000000 0.00000000
 0.00000000 1.00000000

8
 1.00000000 0.00000000
 0.00000000 1.00000000
 1.00000000 0.00000000
 1.00000000 0.00000000

8
 0.09668530 0.90331500
 0.82774100 0.17225900
 0.45021000 0.54979000
 0.04443880 0.95556100

8
 0.72528000 0.27472000
 0.91419000 0.08581000
 0.39623700 0.60376300
 0.53363800 0.46636200

8
 1.00000000 0.00000000
 0.00000000 1.00000000
 1.00000000 0.00000000
 1.00000000 0.00000000

8
 0.98429000 0.01571000
 0.05982780 0.94017200
 0.01810670 0.98189300
 0.46276600 0.53723400

8
 0.00000000 1.00000000
 1.00000000 0.00000000
 1.00000000 0.00000000
 1.00000000 0.00000000

8
 0.56631100 0.43368900
 0.94823000 0.05177030
 0.31256000 0.68744000
 0.97822500 0.02177480

8
 0.87516500 0.12483500
 0.80753800 0.19246200
 0.74364100 0.25635900
 0.41536700 0.58463300

8
 1.00000000 0.00000000
 0.00000000 1.00000000
 1.00000000 0.00000000
 1.00000000 0.00000000

8
 0.00000000 1.00000000
 0.00000000 1.00000000
 1.00000000 0.00000000
 0.00000000 1.00000000

4
 0.00000000 1.00000000
 1.00000000 0.00000000

8
 0.00000000 1.00000000
 0.00000000 1.00000000
 0.00000000 1.00000000
 1.00000000 0.00000000

8
 0.00000000 1.00000000
 1.00000000 0.00000000
 0.00000000 1.00000000
 1.00000000 0.00000000

8
 0.00000000 1.00000000
 0.00000000 1.00000000
 1.00000000 0.00000000
 1.00000000 0.00000000

8
 0.00000000 1.00000000
 1.00000000 0.00000000
 1.00000000 0.00000000
 0.00000000 1.00000000

8
 0.45634700 0.54365300
 0.00909159 0.99090800
 0.12708100 0.87291900
 0.37001800 0.62998200

8
 1.00000000 0.00000000
 1.00000000 0.00000000
 1.00000000 0.00000000
 0.00000000 1.00000000

8
 1.00000000 0.00000000
 0.00000000 1.00000000
 1.00000000 0.00000000
 1.00000000 0.00000000

8
 1.00000000 0.00000000
 0.00000000 1.00000000
 1.00000000 0.00000000
 0.00000000 1.00000000

8
 0.00000000 1.00000000
 1.00000000 0.00000000
 1.00000000 0.00000000
 1.00000000 0.00000000

8
 1.00000000 0.00000000
 1.00000000 0.00000000
 0.00000000 1.00000000
 0.00000000 1.00000000

4
 1.00000000 0.00000000
 0.00000000 1.00000000

8
 1.00000000 0.00000000
 0.00000000 1.00000000
 1.00000000 0.00000000
 1.00000000 0.00000000

8
 0.61948600 0.38051400
 0.90423700 0.09576280
 0.89603700 0.10396300
 0.95579900 0.04420070

8
 1.00000000 0.00000000
 0.00000000 1.00000000
 0.00000000 1.00000000
 0.00000000 1.00000000

8
 1.00000000 0.00000000
 0.00000000 1.00000000
 1.00000000 0.00000000
 0.00000000 1.00000000

8
 0.00000000 1.00000000
 0.00000000 1.00000000
 1.00000000 0.00000000
 1.00000000 0.00000000

8
 1.00000000 0.00000000
 1.00000000 0.00000000
 0.00000000 1.00000000
 0.00000000 1.00000000

8
 1.00000000 0.00000000
 1.00000000 0.00000000
 0.00000000 1.00000000
 1.00000000 0.00000000

8
 0.00000000 1.00000000
 1.00000000 0.00000000
 0.00000000 1.00000000
 1.00000000 0.00000000

8
 0.00000000 1.00000000
 1.00000000 0.00000000
 1.00000000 0.00000000
 0.00000000 1.00000000

8
 0.76735800 0.23264200
 0.86579000 0.13421000
 0.00330917 0.99669100
 0.93406000 0.06593970

8
 0.83335600 0.16664400
 0.85081900 0.14918100
 0.86978500 0.13021500
 0.50458700 0.49541300

8
 0.00000000 1.00000000
 1.00000000 0.00000000
 1.00000000 0.00000000
 1.00000000 0.00000000

4
 0.00000000 1.00000000
 1.00000000 0.00000000

8
 1.00000000 0.00000000
 0.00000000 1.00000000
 0.00000000 1.00000000
 0.00000000 1.00000000

4
 0.00000000 1.00000000
 1.00000000 0.00000000

8
 0.00000000 1.00000000
 1.00000000 0.00000000
 1.00000000 0.00000000
 0.00000000 1.00000000

4
 0.75630200 0.24369800
 0.42053400 0.57946600

8
 1.00000000 0.00000000
 1.00000000 0.00000000
 0.00000000 1.00000000
 0.00000000 1.00000000

8
 0.00000000 1.00000000
 1.00000000 0.00000000
 1.00000000 0.00000000
 1.00000000 0.00000000

8
 1.00000000 0.00000000
 0.00000000 1.00000000
 0.00000000 1.00000000
 0.00000000 1.00000000

8
 0.00000000 1.00000000
 0.00000000 1.00000000
 1.00000000 0.00000000
 0.00000000 1.00000000

8
 0.93443200 0.06556790
 0.09406920 0.90593100
 0.79447800 0.20552200
 0.48258500 0.51741500

8
 0.00000000 1.00000000
 1.00000000 0.00000000
 0.00000000 1.00000000
 1.00000000 0.00000000

8
 0.00000000 1.00000000
 1.00000000 0.00000000
 0.00000000 1.00000000
 1.00000000 0.00000000

8
 0.07678740 0.92321300
 0.35696800 0.64303200
 0.94531800 0.05468220
 0.09219860 0.90780100

8
 0.07162690 0.92837300
 0.54438600 0.45561400
 0.96465700 0.03534250
 0.37302500 0.62697500

8
 1.00000000 0.00000000
 0.00000000 1.00000000
 0.00000000 1.00000000
 0.00000000 1.00000000

8
 0.51606400 0.48393600
 0.44914700 0.55085300
 0.94977600 0.05022400
 0.52182500 0.47817500

8
 0.00000000 1.00000000
 0.00000000 1.00000000
 1.00000000 0.00000000
 1.00000000 0.00000000

8
 1.00000000 0.00000000
 0.00000000 1.00000000
 1.00000000 0.00000000
 1.00000000 0.00000000

8
 0.00000000 1.00000000
 0.00000000 1.00000000
 0.00000000 1.00000000
 1.00000000 0.00000000

8
 0.00000000 1.00000000
 1.00000000 0.00000000
 0.00000000 1.00000000
 0.00000000 1.00000000

8
 1.00000000 0.00000000
 0.00000000 1.00000000
 1.00000000 0.00000000
 0.00000000 1.00000000

8
 1.00000000 0.00000000
 0.00000000 1.00000000
 0.00000000 1.00000000
 0.00000000 1.00000000

4
 1.00000000 0.00000000
 0.00000000 1.00000000

8
 0.00000000 1.00000000
 1.00000000 0.00000000
 0.00000000 1.00000000
 1.00000000 0.00000000

8
 1.00000000 0.00000000
 1.00000000 0.00000000
 0.00000000 1.00000000
 1.00000000 0.00000000

8
 1.00000000 0.00000000
 0.00000000 1.00000000
 0.00000000 1.00000000
 0.00000000 1.00000000

8
 0.00000000 1.00000000
 1.00000000 0.00000000
 0.00000000 1.00000000
 0.00000000 1.00000000

8
 0.00000000 1.00000000
 0.00000000 1.00000000
 1.00000000 0.00000000
 1.00000000 0.00000000

8
 0.00000000 1.00000000
 1.00000000 0.00000000
 1.00000000 0.00000000
 0.00000000 1.00000000

8
 0.00000000 1.00000000
 1.00000000 0.00000000
 1.00000000 0.00000000
 0.00000000 1.00000000

8
 0.22664500 0.77335500
 0.09061490 0.90938500
 0.64039900 0.35960100
 0.80144700 0.19855300

8
 0.00000000 1.00000000
 0.00000000 1.00000000
 0.00000000 1.00000000
 1.00000000 0.00000000

8
 1.00000000 0.00000000
 0.00000000 1.00000000
 1.00000000 0.00000000
 1.00000000 0.00000000

8
 0.00000000 1.00000000
 1.00000000 0.00000000
 0.00000000 1.00000000
 0.00000000 1.00000000

4
 0.68482500 0.31517500
 0.87810700 0.12189300

8
 1.00000000 0.00000000
 0.00000000 1.00000000
 0.00000000 1.00000000
 0.00000000 1.00000000

8
 0.00000000 1.00000000
 1.00000000 0.00000000
 1.00000000 0.00000000
 1.00000000 0.00000000

8
 0.46785000 0.53215000
 0.71657100 0.28342900
 0.88395400 0.11604600
 0.15474100 0.84525900

8
 1.00000000 0.00000000
 1.00000000 0.00000000
 1.00000000 0.00000000
 0.00000000 1.00000000

8
 1.00000000 0.00000000
 0.00000000 1.00000000
 1.00000000 0.00000000
 0.00000000 1.00000000

8
 1.00000000 0.00000000
 0.00000000 1.00000000
 1.00000000 0.00000000
 0.00000000 1.00000000

8
 0.52331800 0.47668200
 0.54872700 0.45127300
 0.85990700 0.14009300
 0.08916810 0.91083200

8
 0.00000000 1.00000000
 0.00000000 1.00000000
 1.00000000 0.00000000
 0.00000000 1.00000000

8
 0.62278900 0.37721100
 0.88601100 0.11398900
 0.85921500 0.14078500
 0.12737600 0.87262400

8
 0.04862180 0.95137800
 0.50224600 0.49775400
 0.09943810 0.90056200
 0.56299300 0.43700700

8
 0.00000000 1.00000000
 1.00000000 0.00000000
 0.00000000 1.00000000
 1.00000000 0.00000000

8
 0.60109200 0.39890800
 0.64231200 0.35768800
 0.09402290 0.90597700
 0.47348100 0.52651900

8
 0.31038500 0.68961500
 0.71421600 0.28578400
 0.78273100 0.21726900
 0.36146000 0.63854000

8
 0.02437840 0.97562200
 0.53781200 0.46218800
 0.90134700 0.09865260
 0.00866839 0.99133200

8
 0.07536190 0.92463800
 0.69120700 0.30879300
 0.60109500 0.39890500
 0.69539200 0.30460800

8
 0.12520700 0.87479300
 0.66391600 0.33608400
 0.71005300 0.28994700
 0.58443300 0.41556700

8
 0.21772600 0.78227400
 0.63995000 0.36005000
 0.62003000 0.37997000
 0.33853500 0.66146500

8
 1.00000000 0.00000000
 1.00000000 0.00000000
 0.00000000 1.00000000
 0.00000000 1.00000000

8
 1.00000000 0.00000000
 0.00000000 1.00000000
 1.00000000 0.00000000
 1.00000000 0.00000000

8
 0.00000000 1.00000000
 1.00000000 0.00000000
 1.00000000 0.00000000
 0.00000000 1.00000000

8
 0.00000000 1.00000000
 0.00000000 1.00000000
 1.00000000 0.00000000
 0.00000000 1.00000000

8
 0.00000000 1.00000000
 0.00000000 1.00000000
 1.00000000 0.00000000
 1.00000000 0.00000000

8
 0.00000000 1.00000000
 1.00000000 0.00000000
 1.00000000 0.00000000
 0.00000000 1.00000000

8
 1.00000000 0.00000000
 1.00000000 0.00000000
 0.00000000 1.00000000
 1.00000000 0.00000000

4
 0.00000000 1.00000000
 1.00000000 0.00000000

8
 0.22977600 0.77022400
 0.27041700 0.72958300
 0.05402820 0.94597200
 0.03798200 0.96201800

8
 1.00000000 0.00000000
 0.00000000 1.00000000
 1.00000000 0.00000000
 1.00000000 0.00000000

8
 1.00000000 0.00000000
 1.00000000 0.00000000
 0.00000000 1.00000000
 1.00000000 0.00000000

8
 0.28085200 0.71914800
 0.32511200 0.67488800
 0.87238900 0.12761100
 0.31883400 0.68116600

8
 0.43023000 0.56977000
 0.90556200 0.09443850
 0.05107540 0.94892500
 0.05469470 0.94530500

8
 1.00000000 0.00000000
 0.00000000 1.00000000
 1.00000000 0.00000000
 0.00000000 1.00000000

8
 1.00000000 0.00000000
 1.00000000 0.00000000
 0.00000000 1.00000000
 1.00000000 0.00000000

8
 0.00000000 1.00000000
 0.00000000 1.00000000
 1.00000000 0.00000000
 0.00000000 1.00000000

8
 1.00000000 0.00000000
 0.00000000 1.00000000
 1.00000000 0.00000000
 0.00000000 1.00000000

8
 1.00000000 0.00000000
 0.00000000 1.00000000
 0.00000000 1.00000000
 0.00000000 1.00000000

8
 0.00000000 1.00000000
 1.00000000 0.00000000
 0.00000000 1.00000000
 0.00000000 1.00000000

8
 0.00000000 1.00000000
 1.00000000 0.00000000
 1.00000000 0.00000000
 1.00000000 0.00000000

8
 1.00000000 0.00000000
 1.00000000 0.00000000
 0.00000000 1.00000000
 0.00000000 1.00000000

8
 0.00000000 1.00000000
 0.00000000 1.00000000
 0.00000000 1.00000000
 1.00000000 0.00000000

8
 0.57480200 0.42519800
 0.62154600 0.37845400
 0.78522000 0.21478000
 0.97103900 0.02896060

8
 0.00000000 1.00000000
 0.00000000 1.00000000
 0.00000000 1.00000000
 1.00000000 0.00000000

8
 0.00000000 1.00000000
 0.00000000 1.00000000
 1.00000000 0.00000000
 0.00000000 1.00000000

8
 0.00000000 1.00000000
 1.00000000 0.00000000
 1.00000000 0.00000000
 1.00000000 0.00000000

8
 0.55631900 0.44368100
 0.09745360 0.90254600
 0.81194100 0.18805900
 0.94371200 0.05628840

8
 0.63960100 0.36039900
 0.57308300 0.42691700
 0.56779400 0.43220600
 0.72353800 0.27646200

8
 0.00000000 1.00000000
 1.00000000 0.00000000
 0.00000000 1.00000000
 0.00000000 1.00000000

8
 1.00000000 0.00000000
 0.00000000 1.00000000
 1.00000000 0.00000000
 1.00000000 0.00000000

8
 0.88589700 0.11410300
 0.91616700 0.08383290
 0.91923800 0.08076150
 0.67924900 0.32075100

8
 1.00000000 0.00000000
 0.00000000 1.00000000
 1.00000000 0.00000000
 1.00000000 0.00000000

8
 0.00000000 1.00000000
 0.00000000 1.00000000
 1.00000000 0.00000000
 0.00000000 1.00000000

4
 1.00000000 0.00000000
 0.00000000 1.00000000

4
 0.00000000 1.00000000
 1.00000000 0.00000000

8
 1.00000000 0.00000000
 0.00000000 1.00000000
 1.00000000 0.00000000
 1.00000000 0.00000000

8
 0.78590800 0.21409200
 0.52153200 0.47846800
 0.46973700 0.53026300
 0.55132800 0.44867200

8
 0.00000000 1.00000000
 0.00000000 1.00000000
 0.00000000 1.00000000
 1.00000000 0.00000000

8
 0.00000000 1.00000000
 0.00000000 1.00000000
 1.00000000 0.00000000
 0.00000000 1.00000000

8
 0.00000000 1.00000000
 0.00000000 1.00000000
 0.00000000 1.00000000
 1.00000000 0.00000000

8
 0.78113800 0.21886200
 0.71935100 0.28064900
 0.70929900 0.29070100
 0.47529700 0.52470300

8
 0.00000000 1.00000000
 0.00000000 1.00000000
 1.00000000 0.00000000
 1.00000000 0.00000000

8
 1.00000000 0.00000000
 0.00000000 1.00000000
 1.00000000 0.00000000
 0.00000000 1.00000000

8
 1.00000000 0.00000000
 1.00000000 0.00000000
 0.00000000 1.00000000
 1.00000000 0.00000000

8
 1.00000000 0.00000000
 0.00000000 1.00000000
 1.00000000 0.00000000
 1.00000000 0.00000000

8
 0.72767500 0.27232500
 0.81746400 0.18253600
 0.99074000 0.00926049
 0.52111400 0.47888600

8
 1.00000000 0.00000000
 1.00000000 0.00000000
 0.00000000 1.00000000
 1.00000000 0.00000000

8
 1.00000000 0.00000000
 0.00000000 1.00000000
 1.00000000 0.00000000
 0.00000000 1.00000000

8
 1.00000000 0.00000000
 1.00000000 0.00000000
 0.00000000 1.00000000
 0.00000000 1.00000000

8
 0.68254500 0.31745500
 0.69788700 0.30211300
 0.90328100 0.09671860
 0.22227100 0.77772900

4
 0.43427900 0.56572100
 0.00570236 0.99429800

8
 0.00000000 1.00000000
 0.00000000 1.00000000
 0.00000000 1.00000000
 1.00000000 0.00000000

8
 0.00000000 1.00000000
 0.00000000 1.00000000
 1.00000000 0.00000000
 0.00000000 1.00000000

8
 0.00000000 1.00000000
 0.00000000 1.00000000
 1.00000000 0.00000000
 1.00000000 0.00000000

8
 0.00000000 1.00000000
 1.00000000 0.00000000
 1.00000000 0.00000000
 0.00000000 1.00000000

8
 0.00000000 1.00000000
 1.00000000 0.00000000
 0.00000000 1.00000000
 1.00000000 0.00000000

8
 1.00000000 0.00000000
 1.00000000 0.00000000
 0.00000000 1.00000000
 1.00000000 0.00000000

8
 0.00000000 1.00000000
 1.00000000 0.00000000
 1.00000000 0.00000000
 0.00000000 1.00000000

8
 0.00000000 1.00000000
 0.00000000 1.00000000
 1.00000000 0.00000000
 0.00000000 1.00000000

8
 1.00000000 0.00000000
 1.00000000 0.00000000
 1.00000000 0.00000000
 0.00000000 1.00000000

8
 0.45614800 0.54385200
 0.71574000 0.28426000
 0.67284100 0.32715900
 0.48589000 0.51411000

4
 1.00000000 0.00000000
 0.00000000 1.00000000

8
 0.69365800 0.30634200
 0.15228200 0.84771800
 0.40503100 0.59496900
 0.43925600 0.56074400

8
 1.00000000 0.00000000
 1.00000000 0.00000000
 0.00000000 1.00000000
 0.00000000 1.00000000

4
 0.00000000 1.00000000
 1.00000000 0.00000000

4
 0.00000000 1.00000000
 1.00000000 0.00000000

2
 0.29647700 0.70352300

4
 0.00000000 1.00000000
 1.00000000 0.00000000

4
 1.00000000 0.00000000
 0.00000000 1.00000000

4
 0.27742900 0.72257100
 0.16807400 0.83192600

4
 0.76339500 0.23660500
 0.66953900 0.33046100

4
 0.00000000 1.00000000
 1.00000000 0.00000000

4
 0.00000000 1.00000000
 1.00000000 0.00000000

8
 1.00000000 0.00000000
 1.00000000 0.00000000
 1.00000000 0.00000000
 0.00000000 1.00000000

8
 1.00000000 0.00000000
 1.00000000 0.00000000
 1.00000000 0.00000000
 0.00000000 1.00000000

4
 1.00000000 0.00000000
 0.00000000 1.00000000

8
 0.00000000 1.00000000
 0.00000000 1.00000000
 1.00000000 0.00000000
 1.00000000 0.00000000

8
 0.00000000 1.00000000
 1.00000000 0.00000000
 0.00000000 1.00000000
 1.00000000 0.00000000

8
 1.00000000 0.00000000
 1.00000000 0.00000000
 0.00000000 1.00000000
 0.00000000 1.00000000

8
 1.00000000 0.00000000
 1.00000000 0.00000000
 0.00000000 1.00000000
 0.00000000 1.00000000

8
 0.00000000 1.00000000
 1.00000000 0.00000000
 0.00000000 1.00000000
 1.00000000 0.00000000

8
 0.00000000 1.00000000
 1.00000000 0.00000000
 1.00000000 0.00000000
 1.00000000 0.00000000

8
 1.00000000 0.00000000
 0.00000000 1.00000000
 1.00000000 0.00000000
 0.00000000 1.00000000

8
 0.77484800 0.22515200
 0.34979100 0.65020900
 0.15207100 0.84792900
 0.87383700 0.12616300

8
 1.00000000 0.00000000
 1.00000000 0.00000000
 0.00000000 1.00000000
 1.00000000 0.00000000

8
 1.00000000 0.00000000
 1.00000000 0.00000000
 1.00000000 0.00000000
 0.00000000 1.00000000

8
 0.00000000 1.00000000
 1.00000000 0.00000000
 1.00000000 0.00000000
 1.00000000 0.00000000

8
 0.00000000 1.00000000
 0.00000000 1.00000000
 1.00000000 0.00000000
 1.00000000 0.00000000

8
 0.00000000 1.00000000
 1.00000000 0.00000000
 1.00000000 0.00000000
 1.00000000 0.00000000

8
 1.00000000 0.00000000
 1.00000000 0.00000000
 1.00000000 0.00000000
 0.00000000 1.00000000

8
 0.00000000 1.00000000
 0.00000000 1.00000000
 0.00000000 1.00000000
 1.00000000 0.00000000

8
 1.00000000 0.00000000
 0.00000000 1.00000000
 0.00000000 1.00000000
 1.00000000 0.00000000

8
 1.00000000 0.00000000
 0.00000000 1.00000000
 1.00000000 0.00000000
 1.00000000 0.00000000

8
 1.00000000 0.00000000
 1.00000000 0.00000000
 1.00000000 0.00000000
 0.00000000 1.00000000

4
 0.00000000 1.00000000
 1.00000000 0.00000000

8
 0.00000000 1.00000000
 1.00000000 0.00000000
 1.00000000 0.00000000
 0.00000000 1.00000000

8
 1.00000000 0.00000000
 0.00000000 1.00000000
 0.00000000 1.00000000
 0.00000000 1.00000000

8
 1.00000000 0.00000000
 0.00000000 1.00000000
 1.00000000 0.00000000
 1.00000000 0.00000000

8
 1.00000000 0.00000000
 0.00000000 1.00000000
 1.00000000 0.00000000
 1.00000000 0.00000000

8
 1.00000000 0.00000000
 0.00000000 1.00000000
 0.00000000 1.00000000
 0.00000000 1.00000000

8
 0.44424100 0.55575900
 0.07573850 0.92426200
 0.78943300 0.21056700
 0.03519150 0.96480800

8
 1.00000000 0.00000000
 0.00000000 1.00000000
 0.00000000 1.00000000
 0.00000000 1.00000000

8
 1.00000000 0.00000000
 0.00000000 1.00000000
 0.00000000 1.00000000
 1.00000000 0.00000000

8
 0.56603500 0.43396500
 0.77926600 0.22073400
 0.15530500 0.84469500
 0.61470700 0.38529300

8
 0.50436800 0.49563200
 0.53597100 0.46402900
 0.14154300 0.85845700
 0.63622700 0.36377300

8
 0.07614620 0.92385400
 0.50065600 0.49934400
 0.06629180 0.93370800
 0.87654200 0.12345800

8
 0.53646400 0.46353600
 0.74723800 0.25276200
 0.65814700 0.34185300
 0.03246050 0.96754000

8
 0.69415900 0.30584100
 0.51894000 0.48106000
 0.28743700 0.71256300
 0.77905300 0.22094700

8
 1.00000000 0.00000000
 0.00000000 1.00000000
 0.00000000 1.00000000
 0.00000000 1.00000000

8
 1.00000000 0.00000000
 1.00000000 0.00000000
 1.00000000 0.00000000
 0.00000000 1.00000000

8
 0.00000000 1.00000000
 0.00000000 1.00000000
 1.00000000 0.00000000
 1.00000000 0.00000000

4
 0.00000000 1.00000000
 1.00000000 0.00000000

8
 0.00000000 1.00000000
 1.00000000 0.00000000
 0.00000000 1.00000000
 1.00000000 0.00000000

8
 1.00000000 0.00000000
 1.00000000 0.00000000
 0.00000000 1.00000000
 0.00000000 1.00000000

8
 0.00000000 1.00000000
 0.00000000 1.00000000
 1.00000000 0.00000000
 0.00000000 1.00000000

8
 0.00000000 1.00000000
 1.00000000 0.00000000
 1.00000000 0.00000000
 0.00000000 1.00000000

8
 0.00000000 1.00000000
 0.00000000 1.00000000
 1.00000000 0.00000000
 0.00000000 1.00000000

8
 0.93532100 0.06467900
 0.99341600 0.00658352
 0.33631300 0.66368700
 0.19852900 0.80147100

4
 1.00000000 0.00000000
 0.00000000 1.00000000

4
 0.00000000 1.00000000
 1.00000000 0.00000000

4
 1.00000000 0.00000000
 0.00000000 1.00000000

8
 0.00000000 1.00000000
 0.00000000 1.00000000
 0.00000000 1.00000000
 1.00000000 0.00000000

4
 1.00000000 0.00000000
 0.00000000 1.00000000

4
 0.88006900 0.11993100
 0.86648600 0.13351400

8
 0.86442900 0.13557100
 0.22040100 0.77959900
 0.80039600 0.19960400
 0.27445100 0.72554900

8
 1.00000000 0.00000000
 0.00000000 1.00000000
 0.00000000 1.00000000
 0.00000000 1.00000000

8
 1.00000000 0.00000000
 1.00000000 0.00000000
 1.00000000 0.00000000
 0.00000000 1.00000000

8
 0.00000000 1.00000000
 1.00000000 0.00000000
 1.00000000 0.00000000
 1.00000000 0.00000000

8
 1.00000000 0.00000000
 0.00000000 1.00000000
 1.00000000 0.00000000
 1.00000000 0.00000000

8
 0.99420000 0.00580045
 0.15946900 0.84053100
 0.43510300 0.56489700
 0.53249700 0.46750300

8
 0.00000000 1.00000000
 0.00000000 1.00000000
 1.00000000 0.00000000
 0.00000000 1.00000000

8
 1.00000000 0.00000000
 0.00000000 1.00000000
 1.00000000 0.00000000
 0.00000000 1.00000000

4
 1.00000000 0.00000000
 0.00000000 1.00000000

8
 1.00000000 0.00000000
 1.00000000 0.00000000
 0.00000000 1.00000000
 1.00000000 0.00000000

8
 0.00000000 1.00000000
 0.00000000 1.00000000
 1.00000000 0.00000000
 0.00000000 1.00000000

8
 1.00000000 0.00000000
 0.00000000 1.00000000
 0.00000000 1.00000000
 1.00000000 0.00000000

8
 0.00000000 1.00000000
 0.00000000 1.00000000
 1.00000000 0.00000000
 0.00000000 1.00000000

8
 1.00000000 0.00000000
 1.00000000 0.00000000
 0.00000000 1.00000000
 1.00000000 0.00000000

8
 1.00000000 0.00000000
 0.00000000 1.00000000
 1.00000000 0.00000000
 1.00000000 0.00000000

8
 0.00000000 1.00000000
 0.00000000 1.00000000
 1.00000000 0.00000000
 0.00000000 1.00000000

8
 0.00000000 1.00000000
 1.00000000 0.00000000
 0.00000000 1.00000000
 1.00000000 0.00000000

8
 1.00000000 0.00000000
 0.00000000 1.00000000
 1.00000000 0.00000000
 0.00000000 1.00000000

8
 0.99256000 0.00744043
 0.50125400 0.49874600
 0.93953300 0.06046740
 0.09660500 0.90339500

8
 0.00000000 1.00000000
 0.00000000 1.00000000
 1.00000000 0.00000000
 1.00000000 0.00000000

8
 0.00000000 1.00000000
 1.00000000 0.00000000
 0.00000000 1.00000000
 1.00000000 0.00000000

8
 0.44154900 0.55845100
 0.81438300 0.18561700
 0.25994300 0.74005700
 0.87782100 0.12217900

8
 0.00000000 1.00000000
 1.00000000 0.00000000
 1.00000000 0.00000000
 1.00000000 0.00000000

8
 1.00000000 0.00000000
 1.00000000 0.00000000
 1.00000000 0.00000000
 0.00000000 1.00000000

8
 0.38956800 0.61043200
 0.05235950 0.94764000
 0.13678100 0.86321900
 0.06933130 0.93066900

8
 0.25248700 0.74751300
 0.04057280 0.95942700
 0.84460400 0.15539600
 0.99266100 0.00733938

8
 1.00000000 0.00000000
 1.00000000 0.00000000
 1.00000000 0.00000000
 0.00000000 1.00000000

8
 0.00000000 1.00000000
 1.00000000 0.00000000
 1.00000000 0.00000000
 1.00000000 0.00000000

8
 1.00000000 0.00000000
 1.00000000 0.00000000
 0.00000000 1.00000000
 0.00000000 1.00000000

8
 1.00000000 0.00000000
 0.00000000 1.00000000
 0.00000000 1.00000000
 0.00000000 1.00000000

8
 0.04505480 0.95494500
 0.60632600 0.39367400
 0.60151500 0.39848500
 0.81170300 0.18829700

8
 0.53972600 0.46027400
 0.84568400 0.15431600
 0.88184200 0.11815800
 0.30466600 0.69533400

8
 0.85929100 0.14070900
 0.76081400 0.23918600
 0.67606900 0.32393100
 0.53213200 0.46786800

8
 1.00000000 0.00000000
 1.00000000 0.00000000
 1.00000000 0.00000000
 0.00000000 1.00000000

8
 0.00000000 1.00000000
 0.00000000 1.00000000
 1.00000000 0.00000000
 0.00000000 1.00000000

8
 0.17190200 0.82809800
 0.82969600 0.17030400
 0.70133500 0.29866500
 0.81351000 0.18649000

